




































































































60 27 11 73 51 28 
36 38 75 70 44 43 
40 18 74 39 58 
61 29 16 32 8 67 
0 68 53 13 49 
45 56 22 21 72 
6 62 76 57 14 23 
46 34 26 7 42 52 
71 63 37 48 
30 12 31 66 1 54 24 
47 69 25 10 19 41 
3 5 9 20 2 
15 59 4 35 65 
64 55 33 17 50 
